12 24 6 10
15 15 16 15 11 15 18 16 17 13 8 12 10 18 14 4 12 6 6 14 1 10 18 6 
6.15 5.12 6.46 5.3 12.99 5.18 14.91 10.19 1.68 6.66 9.92 8.1 0.21 7.44 12.58 3.16 15.48 12.77 10.32 9.19 12.95 3.07 8.36 7.95 
13.33 11.17 14 2.36 12.79 15.68 12.14 4.75 1.94 6.03 1.77 10.79 13.79 0.99 7.65 9.62 6.7 4.56 1.26 2.53 8.17 11.02 7.13 12.01 
6.64 8.06 3.09 12.55 14.3 15.91 4.97 8.72 13.77 0.85 4.68 7.92 13.23 11.23 12.23 11.25 5.24 4.41 0.76 4.38 13.9 6.73 11.65 5.76 
3.63 8.61 7.88 15.53 11.94 14.9 4.39 0.22 2.96 15.27 10.74 8.81 2.02 14.8 5.26 6.86 10.75 8.63 8.65 6.74 13.22 5.04 5.45 9.54 
5.66 6.46 15.24 2.69 4.87 12.14 3.73 3.33 6.05 7.23 2.83 10.85 8.3 10.98 6.5 9.63 10.3 8.91 7.67 0.9 4.23 15.92 14.76 15.3 
12.39 6.33 14.9 3.46 10.08 9.77 1.49 10.73 13.57 12.7 8.62 9.61 8.63 0.56 3.68 3.06 0.28 14.07 2.02 12.98 1.16 0.46 13.68 4.59 
8 8 8 8 8 8 8 8 8 8 8 8 8 8 8 8 8 8 8 8 8 8 8 8 
1.48 8.3 0.88 14.16 11.57 5.07 2.15 7.86 4.82 14.67 0.98 2.44 13.15 14.44 14.79 0.19 2.95 0.62 0.85 7.27 2.85 13.16 7.45 15.02 
12.72 5.18 14.2 8.66 4.53 3.94 0.64 6.85 3.3 6.64 7.44 14.95 2.6 6.8 2.24 14.65 12.67 9.11 9.54 8.56 3.22 8.31 0.24 5.26 
10.67 7.92 9.04 13.92 11.53 2.93 0.55 15.06 10.37 15.23 3.05 11.62 11.24 9.92 5.12 4.45 3.17 1.93 12.49 10.83 11.76 4.79 6.54 6 
4.55 15.54 13.83 2.75 12.11 7.94 15.29 6.13 12.11 5.1 1.19 5.72 9.94 1.67 13.25 4.9 15.02 7.54 7.96 13.03 9.78 2.23 15.49 9.49 
15.03 7.31 11.74 15.41 0.54 9.71 11.84 15.57 9.71 4.02 5.65 13.61 10.04 13.81 0.45 0.65 11.89 12.55 5.61 13.05 10.31 10.12 4.87 13.76 
1 1 1 1 1 1 1 1 1 1 1 1 1 1 1 1 1 1 1 1 1 1 1 1 
1 1 1 1 1 1 1 1 1 1 1 1 1 1 1 1 1 1 1 1 1 1 1 1 
1 1 1 1 1 1 1 1 1 1 1 1 1 1 1 1 1 1 1 1 1 1 1 1 
1 1 1 1 1 1 1 1 1 1 1 1 1 1 1 1 1 1 1 1 1 1 1 1 
1 1 1 1 1 1 1 1 1 1 1 1 1 1 1 1 1 1 1 1 1 1 1 1 
1 1 1 1 1 1 1 1 1 1 1 1 1 1 1 1 1 1 1 1 1 1 1 1 
1 1 1 1 1 1 1 1 1 1 1 1 1 1 1 1 1 1 1 1 1 1 1 1 
1 1 1 1 1 1 1 1 1 1 1 1 1 1 1 1 1 1 1 1 1 1 1 1 
1 1 1 1 1 1 1 1 1 1 1 1 1 1 1 1 1 1 1 1 1 1 1 1 
1 1 1 1 1 1 1 1 1 1 1 1 1 1 1 1 1 1 1 1 1 1 1 1 
1 1 1 1 1 1 1 1 1 1 1 1 1 1 1 1 1 1 1 1 1 1 1 1 
1 1 1 1 1 1 1 1 1 1 1 1 1 1 1 1 1 1 1 1 1 1 1 1 
0.01 0.01 0.01 0.01 0.01 0.01 0.01 0.01 0.01 0.01 0.01 0.01 0.01 0.01 0.01 0.01 0.01 0.01 0.01 0.01 0.01 0.01 0.01 0.01 
0.02 0.02 0.02 0.02 0.02 0.02 0.02 0.02 0.02 0.02 0.02 0.02 0.02 0.02 0.02 0.02 0.02 0.02 0.02 0.02 0.02 0.02 0.02 0.02 
0.03 0.03 0.03 0.03 0.03 0.03 0.03 0.03 0.03 0.03 0.03 0.03 0.03 0.03 0.03 0.03 0.03 0.03 0.03 0.03 0.03 0.03 0.03 0.03 
0.04 0.04 0.04 0.04 0.04 0.04 0.04 0.04 0.04 0.04 0.04 0.04 0.04 0.04 0.04 0.04 0.04 0.04 0.04 0.04 0.04 0.04 0.04 0.04 
0.05 0.05 0.05 0.05 0.05 0.05 0.05 0.05 0.05 0.05 0.05 0.05 0.05 0.05 0.05 0.05 0.05 0.05 0.05 0.05 0.05 0.05 0.05 0.05 
0.06 0.06 0.06 0.06 0.06 0.06 0.06 0.06 0.06 0.06 0.06 0.06 0.06 0.06 0.06 0.06 0.06 0.06 0.06 0.06 0.06 0.06 0.06 0.06 
0.07 0.07 0.07 0.07 0.07 0.07 0.07 0.07 0.07 0.07 0.07 0.07 0.07 0.07 0.07 0.07 0.07 0.07 0.07 0.07 0.07 0.07 0.07 0.07 
0.2 0.2 0.2 0.2 0.2 0.2 0.2 0.2 0.2 0.2 0.2 0.2 0.2 0.2 0.2 0.2 0.2 0.2 0.2 0.2 0.2 0.2 0.2 0.2 
0.4 0.4 0.4 0.4 0.4 0.4 0.4 0.4 0.4 0.4 0.4 0.4 0.4 0.4 0.4 0.4 0.4 0.4 0.4 0.4 0.4 0.4 0.4 0.4 
0.6 0.6 0.6 0.6 0.6 0.6 0.6 0.6 0.6 0.6 0.6 0.6 0.6 0.6 0.6 0.6 0.6 0.6 0.6 0.6 0.6 0.6 0.6 0.6 
0.8 0.8 0.8 0.8 0.8 0.8 0.8 0.8 0.8 0.8 0.8 0.8 0.8 0.8 0.8 0.8 0.8 0.8 0.8 0.8 0.8 0.8 0.8 0.8 
1 1 1 1 1 1 1 1 1 1 1 1 1 1 1 1 1 1 1 1 1 1 1 1 
